; benchmark generated from python API
(set-info :status unknown)
(declare-fun S_0 () Real)
(declare-fun S_1 () Real)
(declare-fun C () Real)
(declare-fun S_2 () Real)
(declare-fun L_1 () Real)
(declare-fun A_1 () Real)
(declare-fun S_3 () Real)
(declare-fun L_3 () Real)
(declare-fun A_3 () Real)
(declare-fun S_4 () Real)
(declare-fun L_2 () Real)
(declare-fun A_2 () Real)
(declare-fun L_0 () Real)
(declare-fun A_0 () Real)
(declare-fun L_4 () Real)
(declare-fun A_4 () Real)
(declare-fun B () Real)
(assert
 (let (($x34 (>= L_0 0.0)))
 (let (($x539 (>= C 5.0)))
 (let (($x459 (>= B 5.0)))
 (let (($x12093 (<= 0.0 (+ (* (- 1.0) A_1) C S_0 L_1))))
 (let (($x12102 (not $x12093)))
 (let (($x3424 (<= (+ A_1 (* (- 1.0) L_1) (* 2.0 C) (* (- 1.0) S_4)) 0.0)))
 (let ((?x436 (* (- 1.0) C)))
 (let ((?x469 (* (- 1.0) L_2)))
 (let ((?x386 (* (- 1.0) A_1)))
 (let ((?x1721 (+ A_2 ?x386 ?x469 ?x436 L_1)))
 (let (($x2497 (<= ?x1721 0.0)))
 (let (($x2116 (<= (+ A_3 (* (- 1.0) L_3) (* (- 1.0) S_4)) 0.0)))
 (let (($x1906 (<= (+ A_2 (* (- 1.0) S_4) ?x469 C) 0.0)))
 (let (($x10873 (or $x1906 $x2116 (<= (+ (* 2.0 C) (* (- 1.0) S_4) S_1) 0.0))))
 (let (($x13593 (or $x1906 $x2116 (<= (+ (* 3.0 C) (* (- 1.0) S_4) S_0) 0.0) $x12093)))
 (let (($x1833 (<= (+ A_2 (* (- 1.0) S_3) ?x469) 0.0)))
 (let (($x13391 (or $x1833 (<= (+ A_1 (* (- 1.0) L_1) C (* (- 1.0) S_3)) 0.0) $x12102)))
 (let (($x13389 (or $x1833 (<= (+ (* 2.0 C) (* (- 1.0) S_3) S_0) 0.0) $x12093)))
 (let (($x12874 (<= 0.0 (+ A_3 ?x386 (* (- 2.0) C) L_1 (* (- 1.0) L_3) (* (- 1.0) B)))))
 (let ((?x763 (* 2.0 C)))
 (let ((?x482 (* (- 1.0) L_1)))
 (let ((?x378 (* (- 1.0) A_3)))
 (let ((?x499 (* (- 1.0) B)))
 (let ((?x456 (* (- 1.0) L_3)))
 (let ((?x382 (* (- 1.0) A_2)))
 (let (($x12422 (<= 0.0 (+ A_3 ?x382 ?x436 L_2 ?x456 ?x499))))
 (let (($x71 (= L_3 L_2)))
 (let (($x25780 (or $x71 (<= (+ ?x378 (* 3.0 C) S_0 L_3 B) 0.0) $x12422 $x12874)))
 (let (($x2884 (<= (+ A_3 (* (- 1.0) A_0) (* (- 3.0) C) ?x456 ?x499 L_0) 0.0)))
 (let (($x12457 (<= 0.0 (+ A_4 ?x386 (* (- 3.0) C) L_1 (* (- 1.0) L_4) ?x499))))
 (let (($x12381 (<= 0.0 (+ A_4 ?x382 (* (- 2.0) C) L_2 (* (- 1.0) L_4) ?x499))))
 (let (($x12365 (<= 0.0 (+ A_4 ?x378 ?x436 L_3 (* (- 1.0) L_4) ?x499))))
 (let (($x81 (= L_4 L_3)))
 (let (($x13093 (or $x81 (<= (+ (* (- 1.0) A_4) (* 4.0 C) S_0 L_4 B) 0.0) $x12365 $x12381 $x12457)))
 (let (($x3116 (<= (+ (* (- 1.0) A_4) A_1 (* 3.0 C) L_4 (* (- 1.0) L_0)) 0.0)))
 (let (($x51 (= L_1 L_0)))
 (let (($x1971 (not $x51)))
 (let (($x2930 (<= (+ A_4 (* (- 4.0) C) (* (- 1.0) S_1) (* (- 1.0) L_4) ?x499) 0.0)))
 (let (($x25984 (or (= (+ (* (- 1.0) A_4) A_1 ?x482 (* 3.0 C) L_4 B) 0.0) (not $x12457))))
 (let ((?x443 (* (- 1.0) L_4)))
 (let ((?x917 (* (- 4.0) C)))
 (let ((?x987 (* (- 1.0) A_0)))
 (let (($x26408 (or (not (<= 0.0 (+ A_2 ?x386 ?x436 L_1 ?x469 ?x499))) (= (+ ?x382 A_1 ?x482 C L_2 B) 0.0))))
 (let (($x1932 (<= (+ A_4 ?x382 ?x443 L_2 (* (- 2.0) C)) 0.0)))
 (let (($x61 (= L_2 L_1)))
 (let (($x360 (<= 0.0 (+ ?x378 A_2 C ?x469 L_3 ?x499))))
 (let (($x26028 (or $x81 $x360 (= (+ (* (- 1.0) A_4) A_2 ?x763 ?x469 L_4) 0.0) (not $x1932))))
 (let (($x12331 (not (<= 0.0 (+ L_2 ?x456)))))
 (let (($x2862 (<= (+ A_3 (* (- 1.0) S_4) ?x456 ?x499) 0.0)))
 (let (($x12557 (<= 0.0 (+ A_3 ?x386 ?x456 (* (- 2.0) C) L_1))))
 (let (($x12356 (not (<= 0.0 (+ L_3 ?x443)))))
 (let (($x26787 (or $x51 (<= 0.0 (+ (* (- 1.0) A_4) A_1 (* 3.0 C) ?x482 L_3)) $x12356)))
 (let (($x317 (<= 0.0 (+ ?x382 A_1 C ?x482 L_2 ?x499))))
 (let (($x15587 (or $x317 (<= (+ A_1 ?x763 (* (- 1.0) S_4) ?x482 ?x499) 0.0) $x2116)))
 (let (($x26104 (or (= (+ (* (- 1.0) A_4) A_3 ?x456 C L_4 B) 0.0) (not $x12365))))
 (let (($x972 (= (+ (* (- 1.0) A_4) A_1 (* 3.0 C) ?x482 L_4) 0.0)))
 (let (($x351 (<= 0.0 (+ ?x482 L_0))))
 (let (($x12538 (<= 0.0 (+ A_3 ?x382 ?x456 ?x436 L_2))))
 (let (($x25832 (or $x81 $x351 $x972 (<= 0.0 (+ ?x378 A_1 ?x763 ?x482 L_3 ?x499)) $x12538)))
 (let (($x25818 (or $x81 (= (+ (* (- 1.0) A_4) A_3 C ?x456 L_4) 0.0) (not (<= 0.0 (+ (* (- 1.0) A_4) A_3 ?x456 C L_4))))))
 (let (($x12382 (not $x12381)))
 (let (($x12418 (or $x81 (<= (+ (* (- 1.0) A_4) A_3 C ?x469 L_4) 0.0) $x12331)))
 (let (($x12412 (or $x81 (<= (+ (* (- 1.0) A_4) (* 3.0 C) S_1 L_4 B) 0.0) $x12365 $x12381)))
 (let (($x12409 (or $x81 $x12365 (<= (+ (* (- 1.0) A_4) ?x763 S_2 L_4 B) 0.0))))
 (let (($x856 (<= (+ A_1 (* (- 1.0) S_2) ?x482 ?x499) 0.0)))
 (let (($x12299 (<= 0.0 (+ A_2 ?x386 ?x436 L_1 ?x469 ?x499))))
 (let (($x1087 (<= (+ A_2 (* (- 1.0) S_3) ?x469 ?x499) 0.0)))
 (let (($x108 (>= S_1 S_0)))
 (let (($x111 (>= S_2 S_1)))
 (let (($x114 (>= S_3 S_2)))
 (let (($x117 (>= S_4 S_3)))
 (let (($x119 (>= A_1 A_0)))
 (let (($x120 (>= A_2 A_1)))
 (let (($x121 (>= A_3 A_2)))
 (let (($x122 (>= A_4 A_3)))
 (and $x122 $x121 $x120 $x119 $x117 $x114 $x111 $x108 (or $x51 (not $x351)) (or $x51 (<= (+ ?x386 S_1 L_1 B) 0.0)) (or $x61 (<= (+ ?x382 S_2 L_2 B) 0.0)) $x1087 (<= (+ A_2 ?x436 (* (- 1.0) S_2) ?x469 ?x499) 0.0) (or $x61 (<= (+ ?x382 ?x763 S_0 L_2 B) 0.0) $x12299) (<= (+ A_2 (* (- 3.0) C) (* (- 1.0) S_0) ?x469 ?x499) 0.0) $x856 (<= (+ A_1 (* (- 2.0) C) (* (- 1.0) S_0) ?x482 ?x499) 0.0) (or $x61 (<= (+ ?x382 C S_1 L_2 B) 0.0)) (or $x317 (<= (+ A_1 C (* (- 1.0) S_3) ?x482 ?x499) 0.0)) (or (<= (+ A_1 C (* (- 1.0) S_3) ?x482 ?x499) 0.0) $x1833) (or $x51 (<= (+ ?x386 C S_0 L_1 B) 0.0)) (<= (+ A_1 ?x987 ?x436 ?x482 ?x499 L_0) 0.0) (<= (+ A_1 ?x436 (* (- 1.0) S_1) ?x482 ?x499) 0.0) (or $x71 (<= 0.0 (+ (* (- 1.0) A_4) A_3 ?x456 C L_4))) (or $x12093 (<= (+ C (* (- 1.0) S_2) S_0) 0.0)) (<= (+ ?x987 ?x436 S_1 L_0) 0.0) (or (<= (+ A_1 (* (- 1.0) S_2) ?x482) 0.0) $x12102) (or $x61 (<= 0.0 (+ ?x378 A_2 ?x469 C L_3))) (<= (+ ?x987 ?x917 S_4 L_0) 0.0) (<= (+ A_4 ?x436 (* (- 1.0) S_4) ?x443 ?x499) 0.0) (or $x81 $x12356) (or $x81 (<= (+ (* (- 1.0) A_4) C S_3 L_4 B) 0.0)) (or $x81 (not $x360) $x12365) (or (not (<= 0.0 (+ L_1 ?x469))) $x61) (or $x81 (<= (+ (* (- 1.0) A_4) S_4 L_4 B) 0.0)) $x12409 $x12412 $x12418 (<= (+ A_4 (* (- 2.0) C) (* (- 1.0) S_3) ?x443 ?x499) 0.0) (<= (+ A_4 (* (- 3.0) C) (* (- 1.0) S_2) ?x443 ?x499) 0.0) (or (= (+ (* (- 1.0) A_4) A_2 ?x469 ?x763 L_4 B) 0.0) $x12382) (<= (+ A_4 (* (- 5.0) C) (* (- 1.0) S_0) ?x443 ?x499) 0.0) $x25818 (or $x61 (<= 0.0 ?x1721)) $x25832 (or $x81 $x351 $x972 $x12365 $x12381) (or $x71 $x12331) (or $x51 (<= (+ ?x386 ?x436 S_2 L_1 B) 0.0)) $x26104 (or $x51 $x317 $x12382) (or $x51 $x2497) $x15587 (or $x51 (<= (+ ?x386 (* (- 2.0) C) S_3 L_1 B) 0.0)) (<= (+ ?x378 L_3 ?x436 S_4) 0.0) $x26787 (or $x71 (<= (+ ?x378 S_3 L_3 B) 0.0)) (or $x51 (<= (+ ?x386 (* (- 3.0) C) S_4 L_1 B) 0.0)) (or $x51 (<= 0.0 (+ ?x378 A_1 ?x763 ?x482 L_2)) $x12331) (or $x51 (= (+ ?x378 A_1 ?x763 ?x482 L_3) 0.0) (not $x12557)) (or $x71 (<= (+ A_2 ?x386 ?x436 ?x469 L_1 B) 0.0) $x12557) $x2862 (or $x71 (not $x317) $x12422) (or $x71 (<= (+ ?x378 C S_2 L_3 B) 0.0)) (or (not $x317) $x1906 $x2116) (or (<= 0.0 (+ ?x378 A_2 C B)) $x12331) $x26028 (or (<= (+ A_2 C (* (- 1.0) S_4) ?x469 ?x499) 0.0) $x2116) (or $x61 (<= (+ ?x382 ?x436 S_3 L_2 B) 0.0)) (or $x71 $x12538) (or $x61 (<= (+ ?x382 (* (- 2.0) C) S_4 L_2 B) 0.0)) (or $x61 $x1932) (<= (+ A_2 (* (- 2.0) C) (* (- 1.0) S_1) ?x469 ?x499) 0.0) (<= (+ A_2 ?x987 (* (- 2.0) C) ?x469 ?x499 L_0) 0.0) $x26408 (<= (+ A_4 ?x987 ?x917 ?x443 ?x499 L_0) 0.0) $x25984 $x2930 (or $x81 $x1971 $x3116 $x12365 $x12381) $x13093 (<= (+ (* (- 2.0) C) S_2 (* (- 1.0) S_1)) 0.0) (or $x1833 (<= (+ C (* (- 1.0) S_3) S_1) 0.0)) (or $x71 (<= (+ ?x378 ?x436 S_4 L_3 B) 0.0)) (<= (+ ?x987 (* (- 2.0) C) S_2 L_0) 0.0) (<= (+ A_3 ?x436 (* (- 1.0) S_3) ?x456 ?x499) 0.0) (<= (+ A_3 (* (- 2.0) C) (* (- 1.0) S_2) ?x456 ?x499) 0.0) $x2884 (<= (+ A_3 (* (- 3.0) C) (* (- 1.0) S_1) ?x456 ?x499) 0.0) (or (= (+ ?x378 A_2 ?x469 C L_3 B) 0.0) (not $x12422)) (or $x2497 (not $x12422)) (<= (+ A_3 ?x917 (* (- 1.0) S_0) ?x456 ?x499) 0.0) (or $x71 (<= (+ ?x378 ?x763 S_1 L_3 B) 0.0) $x12422) $x25780 (or (= (+ ?x378 A_1 ?x482 ?x763 L_3 B) 0.0) (not $x12874)) (<= (+ (* (- 3.0) C) S_2 (* (- 1.0) S_0)) 0.0) (or $x2116 (<= (+ C (* (- 1.0) S_4) S_2) 0.0)) $x13389 $x13391 (<= (+ S_3 (* (- 2.0) C) (* (- 1.0) S_2)) 0.0) (<= (+ ?x386 L_1 (* (- 2.0) C) S_3) 0.0) $x13593 $x10873 (<= (+ ?x386 L_1 (* (- 3.0) C) S_4) 0.0) (or $x1906 $x2116 (not $x2497) $x12102) (or $x2116 $x2497 $x3424 $x12102) (<= (+ (* (- 3.0) C) S_4 (* (- 1.0) S_2)) 0.0) (<= (+ ?x917 S_4 (* (- 1.0) S_1)) 0.0) (<= (+ S_3 (* (- 3.0) C) (* (- 1.0) S_1)) 0.0) (<= (+ ?x987 S_3 (* (- 3.0) C) L_0) 0.0) (<= (+ S_3 ?x917 (* (- 1.0) S_0)) 0.0) (<= (+ (* (- 5.0) C) S_4 (* (- 1.0) S_0)) 0.0) $x459 $x539 $x34 (<= (+ (* (- 1.0) A_4) L_4 S_4) 0.0) (<= (+ (* (- 2.0) C) S_4 (* (- 1.0) S_3)) 0.0) (<= (+ ?x987 S_0 L_0) 0.0) (<= (+ ?x386 S_1 L_1) 0.0) (<= (+ ?x382 L_2 S_2) 0.0) (<= (+ ?x382 S_3 L_2 ?x436) 0.0) (<= (+ ?x382 L_2 (* (- 2.0) C) S_4) 0.0) (<= (+ ?x378 L_3 S_3) 0.0) (<= (+ ?x386 L_1 ?x436 S_2) 0.0) (<= (+ (* (- 2.0) C) S_1 (* (- 1.0) S_0)) 0.0))))))))))))))))))))))))))))))))))))))))))))))))))))))))))))))))))))))))))))))
(check-sat)
